NAME : OMNETRUN
COMMENT : 524.61
TYPE : CVRP
DIMENSION : 21
EDGE_WEIGHT_TYPE : EUC_2D
CAPACITY : 21
NODE_COORD_SECTION
1 0.107093 -0.77924
2 210.325 -1020.62
3 11.9119 -1864.24
4 77.8265 -2422.04
5 12.5331 -3058.33
6 123.735 -4109.72
7 159.381 -4879.45
8 211.018 -5245.65
9 397.353 -128.069
10 451.012 -1299.16
11 411.304 -1834.54
12 399.286 -3586.87
13 299.805 -4493.12
14 269.008 -5936.12
15 634.379 -796.362
16 591.569 -2345.01
17 573.281 -3038.41
18 683.179 -4038.18
19 655.642 -4499
20 695.805 -5026.89
21 711.227 -5681.01
DEMAND_SECTION
1 0
2 1
3 1
4 1
5 1
6 1
7 1
8 1
9 1
10 1
11 1
12 1
13 1
14 1
15 1
16 1
17 1
18 1
19 1
20 1
21 1
DEPOT_SECTION
1
-1
EOF
